GLKH-1.1/TMP/mtspf.pid3348.tour
NAME : mtspf.pid3348.gtsp.32112257.tour
COMMENT : Length = 32112257
COMMENT : Found by LKH [Keld Helsgaun] Wed Jan 22 00:52:33 2025
TYPE : TOUR
DIMENSION : 15
TOUR_SECTION
1
7
4
5
6
3
12
13
14
15
2
10
11
8
9
-1
EOF
